# Objective value = 1.2514265582547846e+03
x[S1,C2,P1,1] 0
x[S1,C2,P1,2] 4.8285106382978871e+00
x[S1,C2,P1,3] 6.1276595744680877e+00
x[S1,C2,P1,4] 0
x[S1,C2,P1,5] 0
x[S1,C2,P1,6] 0
x[S1,C2,P1,7] 0
x[S1,C2,P1,8] 0
x[S1,C2,P1,9] 0
x[S1,C2,P1,10] 9.1914893617021285e+00
x[S1,C2,P1,11] 0
x[S1,C2,P1,12] 0
x[S1,C2,P1,13] 0
x[S1,C2,P1,14] 0
x[S1,C2,P1,15] 0
x[S1,C2,P1,16] 0
x[S1,C2,P1,17] 0
x[S1,C2,P1,18] 0
x[S1,C2,P1,19] 0
x[S1,C3,P1,1] 0
x[S1,C3,P1,2] 9.19148936170211
x[S1,C3,P1,3] 9.1914893617021285e+00
x[S1,C3,P1,4] 0
x[S1,C3,P1,5] 0
x[S1,C3,P1,6] 0
x[S1,C3,P1,7] 0
x[S1,C3,P1,8] 0
x[S1,C3,P1,9] 0
x[S1,C3,P1,10] 1.1153510638297890e+01
x[S1,C3,P1,11] 0
x[S1,C3,P1,12] 0
x[S1,C3,P1,13] 0
x[S1,C3,P1,14] 0
x[S1,C3,P1,15] 0
x[S1,C3,P1,16] 0
x[S1,C3,P1,17] 0
x[S1,C3,P1,18] 0
x[S1,C3,P1,19] 0
x[S2,C1,P1,1] 0
x[S2,C1,P1,2] 1.4553191489361661e+00
x[S2,C1,P1,3] 1.3734680851063841e+01
x[S2,C1,P1,4] 1.1328510638297860e+01
x[S2,C1,P1,5] 0
x[S2,C1,P1,6] 1.0126489361702149e+01
x[S2,C1,P1,7] 7.0561702127659593e+00
x[S2,C1,P1,8] 6.12765957446805
x[S2,C1,P1,9] 1.2986170212765998e+01
x[S2,C1,P1,10] 8.52499999999997
x[S2,C1,P1,11] 1.1700000000000003e+01
x[S2,C1,P1,12] 7.9000000000006332e-01
x[S2,C1,P1,13] 0
x[S2,C1,P1,14] 0
x[S2,C1,P1,15] 0.875
x[S2,C1,P1,16] 1.0255000000000070e+01
x[S2,C1,P1,17] 0
x[S2,C1,P1,18] 0
x[S2,C1,P1,19] 0
x[S2,C2,P1,1] 10.7
x[S2,C2,P1,2] 6.93648936170211
x[S2,C2,P1,3] 0
x[S2,C2,P1,4] 3.7473404255319123e+00
x[S2,C2,P1,5] 9.1050000000000040e+00
x[S2,C2,P1,6] 7.1351063829786920e-01
x[S2,C2,P1,7] 0
x[S2,C2,P1,8] 9.1914893617021569e+00
x[S2,C2,P1,9] 0
x[S2,C2,P1,10] 5.84999999999998
x[S2,C2,P1,11] 1.4385106382978954e+00
x[S2,C2,P1,12] 0
x[S2,C2,P1,13] 8.5399999999999778e+00
x[S2,C2,P1,14] 0
x[S2,C2,P1,15] 0
x[S2,C2,P1,16] 0
x[S2,C2,P1,17] 0
x[S2,C2,P1,18] 0
x[S2,C2,P1,19] 0
x[S2,C3,P1,1] 0
x[S2,C3,P1,2] 2.3081914893617
x[S2,C3,P1,3] 0
x[S2,C3,P1,4] 3.0198066269804258e-14
x[S2,C3,P1,5] 3.0638297872340439e+00
x[S2,C3,P1,6] 5.20999999999996
x[S2,C3,P1,7] 4.4961702127659677e+00
x[S2,C3,P1,8] 0
x[S2,C3,P1,9] 3.0638297872340559e+00
x[S2,C3,P1,10] 0
x[S2,C3,P1,11] 2.9114893617021069e+00
x[S2,C3,P1,12] 1.1566170212765954e+01
x[S2,C3,P1,13] 3.0638297872340430e+00
x[S2,C3,P1,14] 0
x[S2,C3,P1,15] 1.1825000000000031e+01
x[S2,C3,P1,16] 5.79499999999999
x[S2,C3,P1,17] 0
x[S2,C3,P1,18] 0
x[S2,C3,P1,19] 0
r[S2,P1,1] 1
r[S1,P1,1] 0
r[S2,P1,2] 1
r[S1,P1,2] 1
r[S2,P1,3] 1
r[S1,P1,3] 1
r[S2,P1,4] 1
r[S1,P1,4] 0
r[S2,P1,5] 1
r[S1,P1,5] 0
r[S2,P1,6] 1
r[S1,P1,6] 0
r[S2,P1,7] 1
r[S1,P1,7] 0
r[S2,P1,8] 1
r[S1,P1,8] 0
r[S2,P1,9] 1
r[S1,P1,9] 0
r[S2,P1,10] 1
r[S1,P1,10] 1
r[S2,P1,11] 1
r[S1,P1,11] 0
r[S2,P1,12] 1
r[S1,P1,12] 0
r[S2,P1,13] 1
r[S1,P1,13] 0
r[S2,P1,14] 0
r[S1,P1,14] 0
r[S2,P1,15] 1
r[S1,P1,15] 0
r[S2,P1,16] 1
r[S1,P1,16] 0
r[S2,P1,17] 0
r[S1,P1,17] 0
r[S2,P1,18] 0
r[S1,P1,18] 0
r[S2,P1,19] 0
r[S1,P1,19] 0
l[S1,C2] 1
l[S1,C3] 1
l[S2,C1] 1
l[S2,C2] 1
l[S2,C3] 1
k[S1,C2,1] 0
k[S1,C2,2] 2
k[S1,C2,3] 2
k[S1,C2,4] 0
k[S1,C2,5] 0
k[S1,C2,6] 0
k[S1,C2,7] 0
k[S1,C2,8] 0
k[S1,C2,9] 0
k[S1,C2,10] 3
k[S1,C2,11] 0
k[S1,C2,12] 0
k[S1,C2,13] 0
k[S1,C2,14] 0
k[S1,C2,15] 0
k[S1,C2,16] 0
k[S1,C2,17] 0
k[S1,C2,18] 0
k[S1,C2,19] 0
k[S1,C3,1] 0
k[S1,C3,2] 3
k[S1,C3,3] 3
k[S1,C3,4] 0
k[S1,C3,5] 0
k[S1,C3,6] 0
k[S1,C3,7] 0
k[S1,C3,8] 0
k[S1,C3,9] 0
k[S1,C3,10] 4
k[S1,C3,11] 0
k[S1,C3,12] 0
k[S1,C3,13] 0
k[S1,C3,14] 0
k[S1,C3,15] 0
k[S1,C3,16] 0
k[S1,C3,17] 0
k[S1,C3,18] 0
k[S1,C3,19] 0
k[S2,C1,1] 0
k[S2,C1,2] 1
k[S2,C1,3] 5
k[S2,C1,4] 4
k[S2,C1,5] 0
k[S2,C1,6] 4
k[S2,C1,7] 3
k[S2,C1,8] 2
k[S2,C1,9] 5
k[S2,C1,10] 3
k[S2,C1,11] 4
k[S2,C1,12] 1
k[S2,C1,13] 0
k[S2,C1,14] 0
k[S2,C1,15] 1
k[S2,C1,16] 4
k[S2,C1,17] 0
k[S2,C1,18] 0
k[S2,C1,19] 0
k[S2,C2,1] 4
k[S2,C2,2] 3
k[S2,C2,3] 0
k[S2,C2,4] 2
k[S2,C2,5] 3
k[S2,C2,6] 1
k[S2,C2,7] 0
k[S2,C2,8] 3
k[S2,C2,9] 0
k[S2,C2,10] 2
k[S2,C2,11] 1
k[S2,C2,12] 0
k[S2,C2,13] 3
k[S2,C2,14] 0
k[S2,C2,15] 0
k[S2,C2,16] 0
k[S2,C2,17] 0
k[S2,C2,18] 0
k[S2,C2,19] 0
k[S2,C3,1] 0
k[S2,C3,2] 1
k[S2,C3,3] 0
k[S2,C3,4] 0
k[S2,C3,5] 1
k[S2,C3,6] 2
k[S2,C3,7] 2
k[S2,C3,8] 0
k[S2,C3,9] 1
k[S2,C3,10] 0
k[S2,C3,11] 1
k[S2,C3,12] 4
k[S2,C3,13] 1
k[S2,C3,14] 0
k[S2,C3,15] 4
k[S2,C3,16] 2
k[S2,C3,17] 0
k[S2,C3,18] 0
k[S2,C3,19] 0
v[S1,C2] 3
v[S1,C3] 4
v[S2,C1] 5
v[S2,C2] 4
v[S2,C3] 4
z[C1,P1,1] 0
z[C1,P1,2] 0
z[C1,P1,3] 0
z[C1,P1,4] 2.1159574468084914e+00
z[C1,P1,5] 0
z[C1,P1,6] 0.111755319148922
z[C1,P1,7] 1.1175531914892645e-01
z[C1,P1,8] 0.125
z[C1,P1,9] 2.7792553191488878e-02
z[C1,P1,10] 3.6882978723401205e-01
z[C1,P1,11] 0.375
z[C1,P1,12] 0
z[C1,P1,13] 0
z[C1,P1,14] 0
z[C1,P1,15] 0
z[C1,P1,16] 0
z[C1,P1,17] 0.75
z[C1,P1,18] 0
z[C1,P1,19] 0
z[C2,P1,1] 0
z[C2,P1,2] 0
z[C2,P1,3] 0
z[C2,P1,4] 8.2500000000000462e-02
z[C2,P1,5] 1.2329787234042584e+00
z[C2,P1,6] 1.2500000000000178e-01
z[C2,P1,7] 0
z[C2,P1,8] 0.125
z[C2,P1,9] 2.2872340425532656e-02
z[C2,P1,10] 2.2872340425529991e-02
z[C2,P1,11] 0
z[C2,P1,12] 0
z[C2,P1,13] 0
z[C2,P1,14] 0
z[C2,P1,15] 0
z[C2,P1,16] 0
z[C2,P1,17] 0
z[C2,P1,18] 0
z[C2,P1,19] 0
z[C3,P1,1] 0
z[C3,P1,2] 0
z[C3,P1,3] 0
z[C3,P1,4] 2.6361702127659488e+00
z[C3,P1,5] 2.1968085106379664e-01
z[C3,P1,6] 6.0292553191487741e-02
z[C3,P1,7] 1.2500000000001421e-01
z[C3,P1,8] 3.7500000000000355e-01
z[C3,P1,9] 3.3117021276596148e-01
z[C3,P1,10] 3.3117021276595260e-01
z[C3,P1,11] 1.2499999999999645e-01
z[C3,P1,12] 0.125
z[C3,P1,13] 0
z[C3,P1,14] 3.1617021276595025e-01
z[C3,P1,15] 6.2500000000000888e-02
z[C3,P1,16] 3.9749999999999375e-01
z[C3,P1,17] 1.4750000000000281e+00
z[C3,P1,18] 0
z[C3,P1,19] 0
I[D1,P1,0] 0
I[D1,P1,1] 0
I[D1,P1,2] 0
I[D1,P1,3] 0
I[D1,P1,4] 0
I[D1,P1,5] 0
I[D1,P1,6] 0
I[D1,P1,7] 0
I[D1,P1,8] 0
I[D1,P1,9] 0
I[D1,P1,10] 0
I[D1,P1,11] 0
I[D1,P1,12] 0
I[D1,P1,13] 0
I[D1,P1,14] 0
I[D1,P1,15] 0
I[D1,P1,16] 0
I[D1,P1,17] 0
I[D1,P1,18] 0
I[D1,P1,19] 0
I[D2,P1,0] 0
I[D2,P1,1] 0
I[D2,P1,2] 0
I[D2,P1,3] 0
I[D2,P1,4] 0
I[D2,P1,5] 0
I[D2,P1,6] 0
I[D2,P1,7] 0
I[D2,P1,8] 0
I[D2,P1,9] 0
I[D2,P1,10] 0
I[D2,P1,11] 0
I[D2,P1,12] 0
I[D2,P1,13] 0
I[D2,P1,14] 0
I[D2,P1,15] 0
I[D2,P1,16] 0
I[D2,P1,17] 0
I[D2,P1,18] 0
I[D2,P1,19] 0
I[C1,P1,0] 0
I[C1,P1,1] 0
I[C1,P1,2] 0
I[C1,P1,3] 0
I[C1,P1,4] 1.4553191489361643e+00
I[C1,P1,5] 15.19
I[C1,P1,6] 2.6518510638297855e+01
I[C1,P1,7] 2.6518510638297855e+01
I[C1,P1,8] 36.645
I[C1,P1,9] 4.3701170212765959e+01
I[C1,P1,10] 4.9828829787234042e+01
I[C1,P1,11] 62.815
I[C1,P1,12] 71.34
I[C1,P1,13] 8.3039999999999964e+01
I[C1,P1,14] 8.3830000000000013e+01
I[C1,P1,15] 8.3830000000000155e+01
I[C1,P1,16] 8.3830000000000140e+01
I[C1,P1,17] 8.4705000000000013e+01
I[C1,P1,18] 9.4960000000000008e+01
I[C1,P1,19] 9.4960000000000008e+01
I[C2,P1,0] 0
I[C2,P1,1] 0
I[C2,P1,2] 0
I[C2,P1,3] 0
I[C2,P1,4] 10.7
I[C2,P1,5] 1.7636489361702129e+01
I[C2,P1,6] 2.2465000000000003e+01
I[C2,P1,7] 32.34
I[C2,P1,8] 4.1445000000000007e+01
I[C2,P1,9] 4.2158510638297876e+01
I[C2,P1,10] 4.2158510638297876e+01
I[C2,P1,11] 5.1350000000000009e+01
I[C2,P1,12] 5.1350000000000009e+01
I[C2,P1,13] 57.2
I[C2,P1,14] 6.7830000000000027e+01
I[C2,P1,15] 6.7830000000000027e+01
I[C2,P1,16] 76.37
I[C2,P1,17] 76.37
I[C2,P1,18] 76.37
I[C2,P1,19] 76.37
I[C3,P1,0] 0
I[C3,P1,1] 0
I[C3,P1,2] 0
I[C3,P1,3] 0
I[C3,P1,4] 2.3081914893617164e+00
I[C3,P1,5] 1.1499680851063806e+01
I[C3,P1,6] 2.0691170212765964e+01
I[C3,P1,7] 2.3755000000000013e+01
I[C3,P1,8] 2.8964999999999996e+01
I[C3,P1,9] 3.3461170212765964e+01
I[C3,P1,10] 3.3461170212765964e+01
I[C3,P1,11] 3.6525000000000006e+01
I[C3,P1,12] 3.6525000000000006e+01
I[C3,P1,13] 50.59
I[C3,P1,14] 6.2156170212765957e+01
I[C3,P1,15] 65.22
I[C3,P1,16] 65.22
I[C3,P1,17] 7.7045000000000030e+01
I[C3,P1,18] 82.84
I[C3,P1,19] 82.84
